#---------------------------------begin of all inputs--------------------------
#---------------------------------------qseis06--------------------------------
#------------------------------------------------------------------------------
# SOURCE PARAMETERS
# =================
 519.0     |dble: source_depth;
#------------------------------------------------------------------------------
#------------------------------------------------------------------------------
# RECEIVER PARAMETERS
# =================
 0.0     |dble: receiver_depth;
 0   0     |dble: receiver_distance;
 41     |int: no_distances;
 9.931594123578849 10.387761868068425 10.595939871713346 11.471947091039135 11.728360105870335 12.39321542262639 12.756575123934898 13.089810566383036 13.548917687542083 14.149713575955996 14.991140951049045 15.07721408003986 15.909121215777137 16.313692558840888 16.96111392346827 17.320304883735666 17.621778186776996 18.16893816560898 18.878869741773322 19.249218737757165 19.814496180335162 20.160877401602452 20.584589810854332 21.052446944984688 21.51861751767947 22.101010109607984 22.927387902010068 23.186155903095166 23.645099579670976 24.013511868480595 24.998258063102114 25.225449546076273 25.960333739256324 26.3450067185981 26.51159598394142 27.355861992953127 27.90654918558297 28.15124241777622 28.76511021628225 29.21272869203072 29.920106653357625      |dble: d_1,d_n; or d_1,d_2, ...(no comments in between!);
 100.0   300.0   601     |dble: t_start,t_window; int: no_t_samples;
 0   0.0     |int: sw_t_reduce; dble: t_reduce;
#------------------------------------------------------------------------------
#------------------------------------------------------------------------------
# WAVENUMBER INTEGRATION PARAMETERS
# ================
 1     |int: sw_algorithm;
 0.008  0.02  4.0  4.5       |dble: slw(1-4);
 2.5     |dble: sample_rate;
 0.01     |dble: supp_factor;
#------------------------------------------------------------------------------
#------------------------------------------------------------------------------
# OPTIONS FOR PARTIAL SOLUTIONS
# ==========================
 0     |int: isurf;
 0   500.0     |int: sw_path_filter; dble:shallow_depth_limit;
 0     |int: no_of_depth_ranges;
#------------------------------------------------------------------------------
#------------------------------------------------------------------------------
# SOURCE TIME FUNCTION (WAVELET) PARAMETERS
# ===============================
 1.6   1     |int:dble: wavelet_duration; sw_wavelet;
#------------------------------------------------------------------------------
#------------------------------------------------------------------------------
# FILTER PARAMETERS OF RECEIVERS (SEISMOMETERS OR HYDROPHONES)
# =====================================
 1.0
 0
# 
 1
 (0.0, 0.0), 
#------------------------------------------------------------------------------
#------------------------------------------------------------------------------
# OUTPUT FILES FOR GREENS FUNCTIONS
# =====================================
   1     1     1     0     0     0          |int
   'ex_example'     'ss_example'     'ds_example'     'cl_example'     'fz_example'     'fh_example'          |char
#------------------------------------------------------------------------------
#------------------------------------------------------------------------------
# OUTPUT FILES FOR AN ARBITRARY POINT DISLOCATION SOURCE
# =====================================
 1  1.41  -1.46  0.055  -2.41  2.58  1.29   'seis_example'
 0
 265  
#------------------------------------------------------------------------------
#------------------------------------------------------------------------------
# GLOBAL MODEL PARAMETERS
# ======================
 1     |int: sw_flat_earth_transform;
 0.1  0.1  0.1     |dble: vp_res, vs_res, ro_res;
#------------------------------------------------------------------------------
# LAYERED EARTH MODEL (SHALLOW SOURCE + UNIFORM DEEP SOURCE/RECEIVER STRUCTURE)
# =====================================
 41     |int: no_model_lines;
#------------------------------------------------------------------------------
# MULTILAYERED MODEL PARAMETERS (source site)
# =====================================
# no  depth[km]  vp[km/s]  vs[km/s]  ro[g/cm^3] qp      qs
#------------------------------------------------------------------------------
1   0.0   5.8   3.46   2.72   1368.02   599.99
2   20.0   5.8   3.46   2.72   1368.02   599.99
3   20.0   6.5   3.85   2.92   972.77   403.93
4   35.0   6.5   3.85   2.92   972.77   403.93
5   35.0   8.04   4.48   3.32   182.03   75.6
6   77.5   8.045   4.49   3.345   182.03   75.6
7   120.0   8.0505   4.5   3.4268   182.57   76.06
8   165.0   8.175   4.509   3.3711   188.72   76.55
9   210.0   8.3007   4.5184   3.3243   200.97   79.4
10   210.0   8.3007   4.5184   3.3243   338.47   133.72
11   260.0   8.4822   4.6094   3.3663   346.37   136.38
12   310.0   8.665   4.6964   3.411   355.85   139.38
13   360.0   8.8476   4.7832   3.4577   366.34   142.76
14   410.0   9.0302   4.8702   3.5068   377.93   146.57
15   410.0   9.3601   5.0806   3.9317   413.66   162.5
16   460.0   9.528   5.1864   3.9273   417.32   164.87
17   510.0   9.6962   5.2922   3.9233   419.94   166.8
18   560.0   9.676818647659152   5.542588339871682   3.9218   422.55   168.78
19   580.0   10.164099028632235   5.493233258301592   3.92132   423.734   169.596
20   600.0   10.269583959260638   5.478560814461593   3.92084   424.918   170.412
21   620.0   9.777112855500771   5.548021201979377   3.9205   426.146   171.242
22   630.0   9.985920944632174   5.385656982852227   3.9204   426.782   171.664
23   645.6232854609518   10.108692250693903   5.462216546522659   3.9201   428.69   172.93
24   677.1418746587245   10.4734317223768   6.067372478527468   4.2387   1350.54   549.45
25   690.0   10.81798147261116   6.152230851811906   4.27464   1326.9180000000001   545.868
26   710.0   11.020086223466835   6.1953558124936885   4.2986   1311.17   543.48
27   730.0   10.761654812319774   6.060679905255729   4.32176   1297.874   541.14
28   750.0   10.962083889682521   6.261433664547129   4.34492   1284.578   538.8
29   760.0   10.859799305526952   6.246378996684408   4.3565   1277.93   537.63
30   809.5   10.972245325842476   6.12779338995753   4.4118   1269.44   531.91
31   859.0   11.05395647985584   6.136792435394302   4.465   1260.68   526.32
32   908.5   11.33086090236239   6.346540544941524   4.5162   1251.69   520.83
33   958.0   11.3897   6.3519   4.5654   1243.02   515.46
34   1007.5   11.4704   6.386   4.5926   1234.54   510.2
35   1057.0   11.5493   6.4182   4.6198   1226.52   505.05
36   1106.5   11.6265   6.4514   4.6467   1217.91   500.0
37   1156.0   11.702   6.4822   4.6735   1210.02   495.05
38   1205.5   11.7768   6.5131   4.7001   1202.04   490.2
39   1255.0   11.8491   6.5431   4.7266   1193.99   485.44
40   1304.5   11.9208   6.5728   4.7528   1186.06   480.77
41   1354.0   11.9891   6.6009   4.779   1178.19   476.19
#------------------------------------------------------------------------------
#------------------------------------------------------------------------------
# LAYERED EARTH MODEL (ONLY THE SHALLOW RECEIVER STRUCTURE)
# =====================================
 0     |int: no_model_lines;
#------------------------------------------------------------------------------
# MULTILAYERED MODEL PARAMETERS (receiver site)
# =====================================
# no  depth[km]  vp[km/s]  vs[km/s]  ro[g/cm^3] qp      qs
#------------------------------------------------------------------------------
 1   0.000000   2.900000   1.676000   2.600000   92.000000   41.000000
 2   2.000000   2.900000   1.676000   2.600000   92.000000   41.000000
 3   2.000000   5.400000   3.121000   2.600000   92.000000   41.000000
 4   7.000000   5.400000   3.121000   2.600000   92.000000   41.000000
 5   7.000000   6.160000   3.561000   2.600000   576.000000   256.000000
 6   17.000000   6.160000   3.561000   2.600000   576.000000   256.000000
 7   17.000000   6.630000   3.832000   2.900000   576.000000   256.000000
 8   35.000000   6.630000   3.832000   2.900000   576.000000   256.000000
 9   35.000000   8.040000   4.470000   3.319800   1340.000000   600.000000
#------------------------------------------------------------------------------
#---------------------------------end of all inputs----------------------------
