#---------------------------------begin of all inputs--------------------------
#---------------------------------------qseis06--------------------------------
#------------------------------------------------------------------------------
# SOURCE PARAMETERS
# =================
 519.0     |dble: source_depth;
#------------------------------------------------------------------------------
#------------------------------------------------------------------------------
# RECEIVER PARAMETERS
# =================
 0.0     |dble: receiver_depth;
 0   0     |dble: receiver_distance;
 41     |int: no_distances;
 9.75 10.25 10.75 11.25 11.75 12.25 12.75 13.25 13.75 14.25 14.75 15.25 15.75 16.25 16.75 17.25 17.75 18.25 18.75 19.25 19.75 20.25 20.75 21.25 21.75 22.25 22.75 23.25 23.75 24.25 24.75 25.25 25.75 26.25 26.75 27.25 27.75 28.25 28.75 29.25 29.75      |dble: d_1,d_n; or d_1,d_2, ...(no comments in between!);
 100.0   300.0   601     |dble: t_start,t_window; int: no_t_samples;
 0   0.0     |int: sw_t_reduce; dble: t_reduce;
#------------------------------------------------------------------------------
#------------------------------------------------------------------------------
# WAVENUMBER INTEGRATION PARAMETERS
# ================
 1     |int: sw_algorithm;
 0.008  0.02  4.0  4.5       |dble: slw(1-4);
 2.5     |dble: sample_rate;
 0.01     |dble: supp_factor;
#------------------------------------------------------------------------------
#------------------------------------------------------------------------------
# OPTIONS FOR PARTIAL SOLUTIONS
# ==========================
 0     |int: isurf;
 0   500.0     |int: sw_path_filter; dble:shallow_depth_limit;
 0     |int: no_of_depth_ranges;
#------------------------------------------------------------------------------
#------------------------------------------------------------------------------
# SOURCE TIME FUNCTION (WAVELET) PARAMETERS
# ===============================
 1.6   1     |int:dble: wavelet_duration; sw_wavelet;
#------------------------------------------------------------------------------
#------------------------------------------------------------------------------
# FILTER PARAMETERS OF RECEIVERS (SEISMOMETERS OR HYDROPHONES)
# =====================================
 1.0
 0
# 
 1
 (0.0, 0.0), 
#------------------------------------------------------------------------------
#------------------------------------------------------------------------------
# OUTPUT FILES FOR GREENS FUNCTIONS
# =====================================
   1     1     1     0     0     0          |int
   'ex_model_li'     'ss_model_li'     'ds_model_li'     'cl_model_li'     'fz_model_li'     'fh_model_li'          |char
#------------------------------------------------------------------------------
#------------------------------------------------------------------------------
# OUTPUT FILES FOR AN ARBITRARY POINT DISLOCATION SOURCE
# =====================================
 1  1.41  -1.46  0.055  -2.41  2.58  1.29   'seis_model_li'
 0
 265  
#------------------------------------------------------------------------------
#------------------------------------------------------------------------------
# GLOBAL MODEL PARAMETERS
# ======================
 1     |int: sw_flat_earth_transform;
 0.1  0.1  0.1     |dble: vp_res, vs_res, ro_res;
#------------------------------------------------------------------------------
# LAYERED EARTH MODEL (SHALLOW SOURCE + UNIFORM DEEP SOURCE/RECEIVER STRUCTURE)
# =====================================
 41     |int: no_model_lines;
#------------------------------------------------------------------------------
# MULTILAYERED MODEL PARAMETERS (source site)
# =====================================
# no  depth[km]  vp[km/s]  vs[km/s]  ro[g/cm^3] qp      qs
#------------------------------------------------------------------------------
  1      0.00    5.8000    3.4600    2.7200   1368.02    599.99
  2     20.00    5.8000    3.4600    2.7200   1368.02    599.99
  3     20.00    6.5000    3.8500    2.9200    972.77    403.93
  4     35.00    6.5000    3.8500    2.9200    972.77    403.93
  5     35.00    8.0400    4.4800    3.3200    182.03     75.60
  6     77.50    8.0450    4.4900    3.3450    182.03     75.60
  7    120.00    8.0505    4.5000    3.4268    182.57     76.06
  8    165.00    8.1750    4.5090    3.3711    188.72     76.55
  9    210.00    8.3007    4.5184    3.3243    200.97     79.40
 10    210.00    8.3007    4.5184    3.3243    338.47    133.72
 11    260.00    8.4822    4.6094    3.3663    346.37    136.38
 12    310.00    8.6650    4.6964    3.4110    355.85    139.38
 13    360.00    8.8476    4.7832    3.4577    366.34    142.76
 14    410.00    9.0302    4.8702    3.5068    377.93    146.57
 15    410.00    9.3601    5.0806    3.9317    413.66    162.50
 16    460.00    9.5280    5.1864    3.9273    417.32    164.87
 17    510.00    9.6962    5.2922    3.9233    419.94    166.80
 18    560.00    9.9473    5.3220    3.9219    422.68    168.80
 19    580.00   10.0487    5.3860    3.9214    423.80    169.60
 20    600.00   10.1500    5.4500    3.9208    424.92    170.41
 21    620.00   10.1746    5.4654    4.0205    708.51    286.85
 22    630.00   10.1869    5.4731    4.0703    850.31    345.07
 23    650.00   10.2115    5.4885    4.1700   1133.90    461.52
 24    665.00   10.2300    5.5000    4.2447   1346.60    548.85
 25    690.00   10.6689    5.8500    4.2746   1326.92    545.87
 26    710.00   11.0200    6.1300    4.2986   1311.17    543.48
 27    730.00   11.0341    6.1620    4.3218   1297.87    541.14
 28    750.00   11.0482    6.1940    4.3449   1284.58    538.80
 29    760.00   11.0553    6.2100    4.3565   1277.93    537.63
 30    809.50   11.1355    6.2424    4.4118   1269.44    531.91
 31    859.00   11.2228    6.2799    4.4650   1260.68    526.32
 32    908.50   11.3068    6.3164    4.5162   1251.69    520.83
 33    958.00   11.3897    6.3519    4.5654   1243.02    515.46
 34   1007.50   11.4704    6.3860    4.5926   1234.54    510.20
 35   1057.00   11.5493    6.4182    4.6198   1226.52    505.05
 36   1106.50   11.6265    6.4514    4.6467   1217.91    500.00
 37   1156.00   11.7020    6.4822    4.6735   1210.02    495.05
 38   1205.50   11.7768    6.5131    4.7001   1202.04    490.20
 39   1255.00   11.8491    6.5431    4.7266   1193.99    485.44
 40   1304.50   11.9208    6.5728    4.7528   1186.06    480.77
 41   1354.00   11.9891    6.6009    4.7790   1178.19    476.19
#------------------------------------------------------------------------------
#------------------------------------------------------------------------------
# LAYERED EARTH MODEL (ONLY THE SHALLOW RECEIVER STRUCTURE)
# =====================================
 0     |int: no_model_lines;
#------------------------------------------------------------------------------
# MULTILAYERED MODEL PARAMETERS (receiver site)
# =====================================
# no  depth[km]  vp[km/s]  vs[km/s]  ro[g/cm^3] qp      qs
#------------------------------------------------------------------------------
 1   0.000000   2.900000   1.676000   2.600000   92.000000   41.000000
 2   2.000000   2.900000   1.676000   2.600000   92.000000   41.000000
 3   2.000000   5.400000   3.121000   2.600000   92.000000   41.000000
 4   7.000000   5.400000   3.121000   2.600000   92.000000   41.000000
 5   7.000000   6.160000   3.561000   2.600000   576.000000   256.000000
 6   17.000000   6.160000   3.561000   2.600000   576.000000   256.000000
 7   17.000000   6.630000   3.832000   2.900000   576.000000   256.000000
 8   35.000000   6.630000   3.832000   2.900000   576.000000   256.000000
 9   35.000000   8.040000   4.470000   3.319800   1340.000000   600.000000
#------------------------------------------------------------------------------
#---------------------------------end of all inputs----------------------------
